p wcnf 120 1600
4 -113 -119 0
7 -113 116 0
10 -112 118 0
7 -111 -115 0
7 -107 -118 0
3 -106 -120 0
7 -106 -114 0
9 -106 108 0
8 -105 -119 0
4 -105 111 0
3 -103 -120 0
5 -103 -119 0
8 -103 -117 0
4 -103 -111 0
8 -103 -105 0
4 -103 106 0
3 -102 -120 0
9 -101 -110 0
8 -101 104 0
4 -100 -104 0
5 -100 -101 0
5 -99 -100 0
5 -99 115 0
3 -98 -114 0
9 -97 101 0
6 -97 110 0
2 -97 117 0
10 -96 -105 0
9 -96 -103 0
9 -96 110 0
4 -96 120 0
3 -95 -101 0
6 -95 99 0
3 -95 110 0
9 -94 99 0
4 -93 -100 0
5 -93 -98 0
6 -93 117 0
3 -92 -100 0
4 -92 93 0
8 -92 105 0
5 -91 -100 0
8 -91 96 0
6 -91 109 0
7 -89 -102 0
6 -89 108 0
9 -88 -113 0
9 -88 -110 0
5 -88 -95 0
7 -88 90 0
4 -88 117 0
9 -86 -95 0
1 -86 109 0
8 -86 118 0
3 -85 -118 0
9 -85 -115 0
4 -85 -106 0
4 -85 -96 0
9 -85 102 0
3 -85 105 0
4 -85 106 0
3 -85 118 0
5 -84 -117 0
9 -84 -104 0
5 -84 88 0
5 -83 -89 0
3 -82 -93 0
10 -82 101 0
9 -82 102 0
4 -82 111 0
3 -82 120 0
8 -81 -114 0
8 -81 -113 0
1 -81 -88 0
4 -81 96 0
5 -81 98 0
6 -80 -112 0
2 -80 -100 0
4 -80 -97 0
1 -80 117 0
8 -79 -101 0
7 -79 -96 0
10 -79 -85 0
8 -79 85 0
5 -79 87 0
2 -79 108 0
7 -78 -119 0
8 -78 -113 0
6 -78 -93 0
6 -78 -82 0
10 -78 -80 0
8 -78 87 0
8 -77 -113 0
5 -77 -103 0
7 -77 -102 0
3 -77 -93 0
9 -77 -82 0
9 -77 97 0
2 -77 107 0
8 -77 113 0
3 -76 -113 0
5 -76 -112 0
6 -76 116 0
1 -75 -113 0
5 -75 95 0
9 -75 96 0
5 -74 -105 0
1 -74 -104 0
10 -74 -87 0
8 -74 78 0
2 -74 85 0
8 -73 -98 0
5 -73 78 0
1 -72 -106 0
6 -72 -103 0
9 -72 -99 0
2 -72 -76 0
3 -72 75 0
6 -72 89 0
7 -72 94 0
8 -72 110 0
6 -72 116 0
5 -71 -115 0
6 -71 -76 0
1 -71 100 0
2 -71 107 0
8 -71 117 0
9 -70 -71 0
10 -70 79 0
9 -69 -96 0
7 -69 -89 0
3 -69 83 0
4 -69 85 0
3 -69 108 0
3 -68 -111 0
7 -68 -107 0
2 -68 -96 0
8 -68 -80 0
8 -68 76 0
2 -68 81 0
6 -67 -77 0
8 -67 -76 0
9 -67 90 0
1 -67 94 0
8 -67 96 0
5 -67 115 0
9 -66 -113 0
10 -66 -108 0
7 -66 -102 0
5 -66 -90 0
7 -66 -82 0
6 -66 110 0
2 -65 -84 0
2 -65 -79 0
2 -65 -74 0
2 -65 -69 0
3 -65 66 0
8 -64 -115 0
1 -64 -112 0
3 -64 -105 0
7 -64 -91 0
8 -64 -81 0
5 -64 -74 0
1 -64 -70 0
1 -64 71 0
8 -64 72 0
7 -64 87 0
2 -64 92 0
5 -64 95 0
5 -63 -108 0
3 -63 -101 0
1 -63 -90 0
3 -63 68 0
1 -63 73 0
2 -63 86 0
1 -63 93 0
5 -63 111 0
9 -63 113 0
1 -62 -117 0
3 -62 -100 0
5 -62 -66 0
7 -62 84 0
7 -62 87 0
5 -62 94 0
8 -62 103 0
8 -62 117 0
6 -61 -119 0
10 -61 -83 0
7 -61 -78 0
7 -61 62 0
3 -61 70 0
4 -61 84 0
4 -61 98 0
7 -61 111 0
4 -60 -111 0
5 -60 -74 0
5 -60 94 0
1 -60 96 0
6 -60 105 0
9 -60 116 0
5 -59 -104 0
7 -59 -89 0
9 -59 72 0
8 -59 78 0
8 -59 82 0
1 -59 98 0
8 -59 103 0
3 -58 -72 0
10 -58 64 0
8 -58 81 0
5 -57 -71 0
4 -57 -70 0
5 -57 69 0
2 -57 109 0
9 -57 113 0
2 -56 -89 0
9 -56 -64 0
5 -56 57 0
2 -56 76 0
5 -56 82 0
2 -56 86 0
4 -56 96 0
9 -56 107 0
5 -55 -106 0
10 -55 -72 0
3 -55 85 0
9 -54 -92 0
4 -54 -87 0
3 -54 -75 0
4 -54 -55 0
3 -54 76 0
7 -54 100 0
1 -54 110 0
2 -53 -81 0
5 -53 -55 0
8 -53 86 0
2 -53 103 0
3 -53 104 0
1 -52 -100 0
2 -52 -67 0
10 -52 65 0
5 -52 90 0
5 -52 99 0
5 -51 -87 0
6 -51 -83 0
4 -51 -55 0
6 -51 54 0
5 -51 67 0
8 -51 75 0
7 -51 82 0
9 -51 84 0
8 -51 91 0
10 -51 99 0
8 -50 53 0
3 -50 57 0
9 -50 73 0
9 -50 81 0
2 -50 94 0
3 -50 100 0
2 -50 108 0
5 -50 114 0
5 -49 -117 0
9 -49 -111 0
6 -49 -105 0
6 -49 -100 0
4 -49 -95 0
4 -49 -88 0
8 -49 -87 0
6 -49 -77 0
4 -49 -60 0
9 -49 53 0
5 -49 72 0
8 -49 85 0
4 -49 86 0
9 -49 98 0
4 -49 112 0
7 -48 -76 0
5 -48 51 0
8 -48 85 0
4 -48 100 0
2 -48 105 0
7 -48 110 0
3 -47 -111 0
2 -47 -93 0
5 -47 -72 0
5 -47 -56 0
10 -47 -55 0
4 -47 55 0
6 -47 93 0
3 -47 97 0
5 -47 102 0
1 -47 104 0
7 -47 115 0
4 -46 -116 0
6 -46 -111 0
3 -46 -105 0
7 -46 -93 0
9 -46 -82 0
1 -46 -53 0
2 -46 75 0
3 -46 77 0
9 -46 87 0
7 -46 91 0
10 -46 111 0
3 -45 -78 0
6 -45 57 0
4 -45 59 0
8 -45 72 0
10 -45 105 0
2 -44 -112 0
3 -44 -97 0
1 -44 -68 0
8 -44 -64 0
4 -44 47 0
2 -44 62 0
3 -44 71 0
8 -44 80 0
2 -44 98 0
6 -44 116 0
4 -43 -78 0
3 -43 -77 0
1 -43 51 0
4 -43 86 0
9 -43 93 0
4 -43 95 0
9 -43 106 0
3 -43 116 0
1 -42 -119 0
8 -42 -108 0
3 -42 -82 0
3 -42 -73 0
10 -42 -72 0
2 -42 -63 0
8 -42 51 0
10 -42 61 0
4 -42 98 0
4 -42 103 0
4 -42 116 0
2 -41 -102 0
4 -41 -66 0
4 -41 -52 0
4 -41 63 0
4 -41 71 0
2 -41 88 0
7 -41 101 0
5 -41 106 0
3 -40 -117 0
6 -40 -103 0
6 -40 -83 0
8 -40 -78 0
9 -40 -66 0
8 -40 -65 0
8 -40 -52 0
4 -40 -46 0
8 -40 42 0
3 -40 105 0
3 -40 116 0
9 -39 -74 0
3 -39 -50 0
10 -39 -40 0
3 -39 56 0
4 -39 60 0
9 -39 64 0
4 -38 -109 0
2 -38 -104 0
9 -38 -94 0
6 -38 -77 0
5 -38 -43 0
2 -38 -39 0
7 -38 49 0
8 -38 55 0
6 -38 75 0
1 -38 91 0
2 -38 102 0
7 -38 106 0
8 -37 -88 0
6 -37 -53 0
9 -37 40 0
4 -37 49 0
2 -37 63 0
7 -37 90 0
3 -37 92 0
9 -37 94 0
5 -37 98 0
6 -37 101 0
7 -36 -114 0
7 -36 -81 0
7 -36 -79 0
6 -36 -65 0
9 -36 -43 0
7 -36 -39 0
8 -36 113 0
3 -36 116 0
7 -36 119 0
1 -35 -107 0
4 -35 -84 0
5 -35 -63 0
7 -35 -57 0
9 -35 -53 0
7 -35 46 0
4 -35 61 0
7 -35 102 0
3 -35 109 0
5 -35 111 0
8 -34 -114 0
8 -34 38 0
3 -34 45 0
4 -34 82 0
7 -34 108 0
5 -34 112 0
5 -34 120 0
4 -33 -120 0
7 -33 -107 0
5 -33 -102 0
9 -33 -84 0
3 -33 -69 0
2 -33 -45 0
6 -33 41 0
9 -33 42 0
7 -33 44 0
4 -33 63 0
6 -33 80 0
5 -33 91 0
6 -33 117 0
3 -32 -117 0
6 -32 -116 0
9 -32 -99 0
7 -32 -93 0
2 -32 -55 0
8 -32 36 0
4 -32 82 0
5 -31 -85 0
4 -31 -44 0
6 -31 37 0
9 -31 38 0
2 -31 43 0
4 -31 60 0
2 -30 -115 0
6 -30 -94 0
1 -30 -86 0
6 -30 -54 0
10 -30 34 0
4 -30 76 0
3 -30 88 0
5 -30 105 0
3 -29 -120 0
4 -29 -117 0
5 -29 -106 0
8 -29 -87 0
4 -29 -60 0
2 -29 47 0
2 -29 58 0
9 -29 86 0
6 -29 89 0
6 -29 92 0
2 -29 94 0
2 -29 113 0
5 -29 116 0
8 -28 -117 0
3 -28 -105 0
3 -28 -104 0
3 -28 -92 0
8 -28 -58 0
6 -28 -56 0
7 -28 -53 0
7 -28 54 0
8 -27 -103 0
1 -27 -93 0
7 -27 -87 0
3 -27 -59 0
2 -27 82 0
3 -27 87 0
3 -27 92 0
5 -27 101 0
5 -27 110 0
7 -27 112 0
7 -26 -120 0
9 -26 -118 0
2 -26 -109 0
5 -26 -104 0
2 -26 -95 0
4 -26 -58 0
5 -26 -41 0
1 -26 -40 0
9 -26 65 0
2 -26 72 0
2 -26 73 0
1 -26 91 0
6 -26 115 0
9 -25 -106 0
3 -25 -76 0
8 -25 -37 0
2 -25 45 0
10 -25 48 0
5 -25 75 0
8 -25 118 0
7 -24 -107 0
2 -24 -71 0
8 -24 -64 0
4 -24 -31 0
5 -24 -29 0
9 -24 30 0
6 -24 33 0
7 -24 44 0
4 -24 45 0
1 -24 53 0
4 -24 54 0
10 -24 59 0
9 -24 87 0
5 -24 112 0
4 -24 117 0
10 -23 -48 0
8 -23 47 0
9 -23 78 0
1 -23 109 0
7 -23 113 0
10 -22 -103 0
2 -22 -96 0
7 -22 -91 0
6 -22 -54 0
1 -22 -45 0
9 -22 -31 0
4 -22 46 0
2 -22 59 0
9 -22 65 0
7 -22 91 0
9 -22 114 0
6 -21 -86 0
9 -21 -69 0
7 -21 -54 0
9 -21 -41 0
3 -21 32 0
6 -21 44 0
5 -21 58 0
9 -21 64 0
9 -21 78 0
5 -21 100 0
3 -21 107 0
9 -20 -119 0
4 -20 -117 0
7 -20 -114 0
3 -20 -104 0
4 -20 -103 0
5 -20 -84 0
2 -20 -65 0
4 -20 -48 0
2 -20 -44 0
1 -20 23 0
5 -20 26 0
8 -20 32 0
6 -20 34 0
5 -20 71 0
7 -20 91 0
9 -19 -110 0
6 -19 -107 0
6 -19 -80 0
6 -19 -77 0
5 -19 -76 0
2 -19 -73 0
5 -19 -55 0
2 -19 -51 0
1 -19 -50 0
7 -19 -49 0
7 -19 -22 0
5 -19 26 0
6 -19 35 0
6 -19 39 0
9 -19 56 0
7 -19 67 0
4 -19 80 0
4 -19 111 0
4 -18 -110 0
6 -18 -103 0
7 -18 -96 0
8 -18 -90 0
7 -18 -80 0
10 -18 -43 0
9 -18 -37 0
8 -18 -22 0
5 -18 45 0
7 -18 55 0
4 -18 77 0
9 -18 78 0
4 -17 -115 0
3 -17 -114 0
5 -17 -102 0
9 -17 -94 0
8 -17 -91 0
9 -17 -89 0
2 -17 -67 0
3 -17 -44 0
10 -17 -39 0
2 -17 43 0
9 -17 73 0
6 -17 88 0
6 -17 93 0
5 -17 97 0
2 -17 116 0
5 -17 117 0
2 -16 -88 0
5 -16 -78 0
8 -16 -37 0
6 -16 -23 0
2 -16 -17 0
4 -16 65 0
4 -16 68 0
8 -16 120 0
4 -15 -114 0
2 -15 -111 0
6 -15 -101 0
8 -15 -83 0
8 -15 -47 0
9 -15 -38 0
8 -15 -29 0
2 -15 -17 0
2 -15 24 0
3 -15 27 0
1 -15 48 0
9 -15 75 0
2 -15 91 0
2 -14 -103 0
2 -14 -93 0
1 -14 -73 0
3 -14 -66 0
1 -14 -57 0
7 -14 25 0
7 -14 37 0
5 -14 54 0
8 -14 57 0
2 -14 65 0
6 -13 -100 0
3 -13 -93 0
9 -13 -80 0
2 -13 -77 0
4 -13 15 0
4 -13 17 0
4 -13 20 0
2 -13 27 0
7 -13 42 0
6 -13 73 0
7 -13 78 0
6 -12 -90 0
4 -12 -87 0
6 -12 -71 0
3 -12 -65 0
5 -12 -61 0
6 -12 -47 0
5 -12 -19 0
5 -12 20 0
6 -12 39 0
6 -12 48 0
6 -12 71 0
7 -12 101 0
7 -11 -119 0
8 -11 -86 0
7 -11 -78 0
3 -11 -43 0
5 -11 -33 0
2 -11 23 0
1 -11 49 0
7 -11 96 0
7 -11 101 0
3 -11 114 0
6 -11 115 0
7 -11 119 0
6 -10 -114 0
9 -10 -113 0
2 -10 -108 0
7 -10 -98 0
6 -10 -90 0
6 -10 -85 0
4 -10 -73 0
1 -10 -72 0
9 -10 -23 0
9 -10 -14 0
3 -10 -13 0
4 -10 51 0
5 -10 75 0
8 -10 83 0
9 -10 105 0
10 -10 109 0
4 -10 113 0
5 -9 -33 0
6 -9 25 0
9 -9 52 0
3 -9 73 0
3 -9 88 0
3 -8 -112 0
7 -8 -62 0
4 -8 -61 0
3 -8 -53 0
3 -8 -51 0
9 -8 -49 0
5 -8 19 0
8 -8 33 0
7 -8 49 0
2 -8 51 0
7 -8 54 0
7 -7 -116 0
8 -7 -99 0
2 -7 -88 0
3 -7 -80 0
2 -7 -77 0
2 -7 -70 0
3 -7 -52 0
9 -7 -39 0
5 -7 60 0
6 -7 70 0
5 -7 108 0
2 -6 -117 0
4 -6 -105 0
4 -6 -93 0
5 -6 -92 0
8 -6 -84 0
10 -6 -70 0
4 -6 -45 0
10 -6 -36 0
3 -6 46 0
6 -6 59 0
7 -6 94 0
5 -6 118 0
8 -5 -95 0
9 -5 -54 0
5 -5 -47 0
4 -5 -27 0
8 -5 -14 0
1 -5 -10 0
4 -5 -9 0
4 -5 15 0
8 -5 16 0
2 -5 31 0
6 -5 42 0
1 -5 45 0
3 -5 57 0
7 -5 80 0
3 -5 82 0
2 -5 91 0
2 -4 -77 0
7 -4 -45 0
6 -4 -37 0
4 -4 -33 0
2 -4 -16 0
9 -4 -12 0
8 -4 -7 0
9 -4 5 0
9 -4 43 0
2 -4 105 0
9 -4 106 0
1 -4 109 0
7 -3 -106 0
6 -3 -102 0
6 -3 -73 0
6 -3 -56 0
5 -3 -51 0
9 -3 -50 0
8 -3 -40 0
3 -3 -36 0
10 -3 -22 0
3 -3 -20 0
6 -3 -13 0
7 -3 4 0
4 -3 6 0
2 -3 21 0
7 -3 29 0
6 -3 54 0
9 -3 56 0
9 -3 111 0
7 -2 -80 0
10 -2 -57 0
6 -2 -4 0
3 -2 10 0
3 -2 35 0
7 -2 36 0
2 -2 54 0
1 -2 65 0
6 -2 74 0
9 -2 104 0
2 -2 110 0
5 -1 -113 0
9 -1 -107 0
9 -1 -87 0
1 -1 -86 0
5 -1 -84 0
5 -1 -59 0
5 -1 -56 0
4 -1 -29 0
3 -1 -18 0
7 -1 -3 0
4 -1 6 0
5 -1 16 0
4 -1 104 0
2 1 -117 0
8 1 -85 0
5 1 -36 0
8 1 -18 0
3 1 -17 0
3 1 -12 0
7 1 -3 0
9 1 31 0
3 1 35 0
4 1 64 0
2 1 81 0
5 1 97 0
10 1 104 0
3 1 110 0
5 1 119 0
6 2 -119 0
2 2 -99 0
7 2 -96 0
1 2 -86 0
1 2 -84 0
5 2 -64 0
1 2 -4 0
5 2 31 0
9 2 39 0
6 2 40 0
9 2 75 0
2 2 98 0
3 3 -93 0
3 3 -78 0
6 3 -41 0
5 3 -40 0
4 3 -22 0
3 3 -19 0
9 3 -13 0
2 3 45 0
6 3 48 0
2 3 52 0
8 3 69 0
5 3 104 0
4 3 115 0
2 4 -118 0
6 4 -116 0
9 4 -97 0
2 4 -91 0
7 4 -74 0
4 4 -67 0
7 4 -47 0
8 4 -46 0
10 4 -43 0
7 4 -32 0
8 4 -22 0
5 4 -16 0
8 4 -13 0
4 4 87 0
4 4 92 0
3 4 119 0
2 5 -114 0
5 5 -97 0
5 5 -95 0
4 5 -82 0
1 5 -73 0
10 5 -51 0
7 5 -38 0
4 5 36 0
9 5 49 0
8 5 54 0
9 5 84 0
1 5 97 0
6 6 -108 0
4 6 -76 0
5 6 -60 0
6 6 -25 0
8 6 24 0
4 6 49 0
7 6 57 0
6 6 62 0
7 6 77 0
4 6 85 0
4 6 91 0
7 6 119 0
1 7 -92 0
2 7 -90 0
2 7 -79 0
8 7 -74 0
5 7 -57 0
5 7 -56 0
10 7 -55 0
6 7 -44 0
10 7 -37 0
5 7 14 0
9 7 32 0
10 7 35 0
5 7 43 0
6 7 44 0
3 7 102 0
4 8 20 0
4 8 43 0
2 8 109 0
4 9 -107 0
8 9 -92 0
4 9 -89 0
8 9 -88 0
5 9 -72 0
3 9 -42 0
2 9 -37 0
2 9 -34 0
8 9 -33 0
8 9 -31 0
5 9 -28 0
2 9 -24 0
4 9 17 0
5 9 28 0
3 9 60 0
5 9 89 0
3 10 -118 0
7 10 -113 0
9 10 -96 0
3 10 -67 0
3 10 -60 0
9 10 -39 0
7 10 -30 0
2 10 -28 0
9 10 -24 0
2 10 -15 0
7 10 63 0
2 10 67 0
5 10 68 0
10 10 92 0
3 11 -100 0
8 11 -75 0
8 11 -74 0
6 11 -55 0
6 11 -41 0
3 11 -34 0
8 11 -31 0
7 11 43 0
4 11 45 0
6 11 64 0
5 11 67 0
8 11 99 0
7 11 112 0
8 12 -93 0
3 12 -85 0
9 12 -81 0
3 12 -43 0
5 12 -34 0
6 12 16 0
3 12 50 0
6 12 84 0
7 12 88 0
2 13 -97 0
3 13 -76 0
8 13 -62 0
9 13 -43 0
4 13 -23 0
5 13 -22 0
1 13 17 0
8 13 49 0
5 13 52 0
3 13 82 0
6 13 86 0
3 13 96 0
9 13 117 0
2 14 -78 0
5 14 -62 0
7 14 -54 0
8 14 -50 0
9 14 44 0
3 14 51 0
3 14 65 0
7 14 85 0
9 14 120 0
1 15 -108 0
9 15 30 0
8 15 37 0
4 15 77 0
4 15 82 0
3 15 87 0
6 15 101 0
9 15 102 0
10 15 119 0
6 16 -71 0
2 16 -61 0
8 16 -42 0
6 16 -32 0
5 16 -28 0
3 16 17 0
6 16 18 0
3 16 30 0
7 16 31 0
8 16 33 0
7 16 76 0
10 16 87 0
7 16 93 0
9 16 101 0
5 17 -115 0
4 17 -102 0
7 17 -92 0
3 17 -78 0
6 17 -64 0
9 17 -59 0
9 17 18 0
5 17 85 0
9 17 87 0
8 17 94 0
3 17 106 0
3 17 113 0
2 18 -119 0
6 18 -112 0
8 18 -52 0
9 18 57 0
5 18 84 0
4 18 91 0
1 18 93 0
3 18 97 0
9 18 115 0
5 18 120 0
5 19 -110 0
5 19 -109 0
7 19 -87 0
3 19 -84 0
3 19 -83 0
4 19 -74 0
2 19 -68 0
9 19 -27 0
3 19 22 0
6 19 33 0
4 19 43 0
9 19 59 0
9 19 62 0
9 19 78 0
8 19 96 0
8 19 113 0
4 20 -120 0
7 20 -114 0
6 20 -107 0
7 20 -105 0
9 20 -102 0
6 20 -91 0
2 20 -66 0
7 20 -50 0
6 20 -27 0
6 20 27 0
2 20 29 0
6 20 30 0
9 20 47 0
10 20 61 0
1 20 92 0
4 20 106 0
5 20 107 0
7 21 -115 0
6 21 -90 0
7 21 -79 0
2 21 -75 0
7 21 -63 0
6 21 -62 0
4 21 -43 0
3 21 -36 0
9 21 -22 0
2 21 41 0
1 21 65 0
8 21 85 0
9 21 111 0
8 22 -108 0
2 22 -107 0
6 22 -104 0
4 22 -79 0
8 22 -54 0
5 22 -46 0
9 22 29 0
9 22 36 0
3 22 53 0
5 22 83 0
6 23 -85 0
3 23 -68 0
10 23 28 0
4 23 29 0
3 23 31 0
1 23 39 0
7 23 45 0
7 23 54 0
7 23 72 0
3 23 73 0
4 23 83 0
8 23 85 0
8 23 87 0
9 23 109 0
1 24 -110 0
1 24 -100 0
8 24 -96 0
3 24 -76 0
2 24 -46 0
6 24 28 0
2 24 73 0
9 24 110 0
8 25 -119 0
6 25 -101 0
3 25 -83 0
6 25 -79 0
2 25 -78 0
2 25 -47 0
5 25 34 0
3 25 48 0
6 25 52 0
10 25 59 0
5 25 102 0
6 25 103 0
4 26 -120 0
8 26 -117 0
6 26 -56 0
1 26 -54 0
4 26 -47 0
3 26 -40 0
3 26 -38 0
7 26 -37 0
1 26 30 0
1 26 69 0
7 27 -117 0
2 27 -95 0
2 27 -77 0
5 27 -52 0
3 27 -45 0
2 27 36 0
1 27 41 0
4 27 65 0
10 27 116 0
8 28 -87 0
9 28 -68 0
3 28 30 0
4 28 45 0
1 28 58 0
4 28 66 0
7 28 101 0
3 28 104 0
8 28 109 0
7 28 117 0
8 29 -85 0
4 29 -80 0
1 29 -77 0
5 29 -74 0
9 29 -61 0
1 29 -35 0
9 29 51 0
2 29 66 0
3 29 84 0
6 29 108 0
2 30 -110 0
4 30 -81 0
3 30 -68 0
3 30 -60 0
4 30 32 0
7 30 45 0
5 30 51 0
6 30 74 0
8 30 81 0
8 31 -103 0
6 31 -89 0
6 31 -84 0
8 31 -82 0
7 31 -42 0
8 31 -35 0
8 31 -34 0
10 31 35 0
6 31 56 0
1 31 57 0
8 31 64 0
3 31 79 0
8 31 83 0
3 31 111 0
3 31 118 0
3 32 -64 0
2 32 -50 0
3 32 -34 0
2 32 42 0
3 32 78 0
6 32 81 0
7 32 86 0
4 32 97 0
9 33 -109 0
9 33 -108 0
6 33 -94 0
3 33 -42 0
7 33 62 0
2 33 67 0
8 33 77 0
4 33 90 0
9 33 94 0
4 33 104 0
9 33 106 0
6 33 119 0
10 34 -114 0
7 34 -110 0
4 34 -108 0
10 34 -57 0
3 34 -48 0
4 34 -40 0
8 34 61 0
5 34 76 0
2 34 93 0
1 34 116 0
7 35 -85 0
5 35 -81 0
2 35 -56 0
9 35 -49 0
5 35 -46 0
4 35 46 0
5 35 78 0
3 35 90 0
7 35 119 0
4 36 -80 0
2 36 45 0
3 36 55 0
6 36 71 0
7 36 93 0
4 36 99 0
4 37 -88 0
2 37 -73 0
2 37 -67 0
6 37 -62 0
9 37 -53 0
8 37 67 0
6 37 76 0
7 37 79 0
2 37 86 0
6 37 117 0
8 38 -119 0
6 38 -104 0
5 38 -101 0
3 38 -87 0
7 38 -69 0
5 38 -47 0
9 38 49 0
2 38 59 0
5 38 71 0
8 38 87 0
6 38 88 0
8 39 -86 0
3 39 -79 0
8 39 -47 0
5 39 51 0
5 39 57 0
8 39 75 0
7 39 95 0
1 39 111 0
6 40 -119 0
10 40 -117 0
4 40 -76 0
6 40 -63 0
2 40 -52 0
10 40 62 0
6 40 66 0
9 40 87 0
6 41 -105 0
2 41 -73 0
2 41 -71 0
2 41 -53 0
10 41 -45 0
6 41 80 0
6 41 98 0
3 41 115 0
3 42 -99 0
9 42 -97 0
1 42 -94 0
4 42 -77 0
5 42 -65 0
8 42 -51 0
9 42 52 0
3 42 57 0
10 42 58 0
7 42 77 0
7 42 92 0
5 42 115 0
5 43 -102 0
4 43 -88 0
6 43 74 0
10 43 81 0
4 43 100 0
9 44 -84 0
6 44 -79 0
5 44 -53 0
8 44 62 0
2 44 79 0
4 44 81 0
4 44 90 0
3 44 103 0
5 45 -108 0
5 45 -65 0
3 45 57 0
1 45 59 0
1 45 76 0
5 46 -118 0
4 46 -105 0
9 46 -90 0
5 46 53 0
7 46 66 0
4 46 72 0
3 46 102 0
6 46 108 0
6 47 -120 0
3 47 -104 0
2 47 -86 0
2 47 -76 0
8 47 48 0
6 47 49 0
5 47 60 0
3 47 78 0
6 48 -106 0
8 48 -105 0
2 48 -87 0
2 48 -80 0
3 48 62 0
10 48 108 0
4 49 -118 0
6 49 -112 0
4 49 -110 0
6 49 -88 0
1 49 -69 0
8 49 68 0
8 49 83 0
2 49 95 0
8 50 -94 0
3 50 -88 0
4 50 -73 0
8 50 -66 0
7 50 -62 0
10 50 -57 0
2 50 -54 0
10 50 55 0
6 51 -110 0
6 51 -93 0
3 51 -86 0
7 51 -54 0
8 51 65 0
10 51 116 0
3 52 -99 0
3 52 -94 0
3 52 -86 0
9 52 -84 0
10 52 -79 0
4 52 -62 0
1 52 -55 0
3 52 78 0
4 52 97 0
4 53 -113 0
8 53 -109 0
7 53 -65 0
9 53 58 0
8 53 64 0
5 53 92 0
7 53 111 0
9 53 116 0
3 54 60 0
9 54 74 0
3 54 80 0
1 54 86 0
6 54 94 0
3 54 112 0
2 54 114 0
6 54 115 0
8 54 120 0
7 55 -84 0
8 55 -69 0
4 55 71 0
5 55 85 0
8 55 106 0
7 55 114 0
7 55 116 0
9 56 -114 0
5 56 -107 0
6 56 -100 0
3 56 -93 0
5 56 -62 0
8 56 86 0
6 56 101 0
8 56 118 0
6 57 -116 0
3 57 -105 0
6 57 -99 0
4 57 -90 0
7 57 99 0
3 57 107 0
3 58 -118 0
9 58 -103 0
2 58 -97 0
6 58 -60 0
9 58 61 0
8 58 62 0
8 58 63 0
1 58 82 0
4 58 92 0
5 58 120 0
7 59 -68 0
2 60 -102 0
9 60 -84 0
2 60 -64 0
8 60 98 0
5 60 104 0
8 60 109 0
8 60 116 0
9 61 -115 0
4 61 -99 0
1 61 -91 0
5 61 91 0
2 61 117 0
7 61 119 0
2 62 -118 0
7 62 -114 0
8 62 -112 0
8 62 -108 0
1 62 -101 0
5 62 -99 0
10 62 -82 0
3 62 -68 0
4 62 84 0
2 62 93 0
8 62 99 0
3 62 106 0
9 62 114 0
6 63 -112 0
3 63 -92 0
2 63 -82 0
10 63 -67 0
9 63 78 0
3 63 101 0
8 63 106 0
2 63 118 0
2 64 -107 0
4 64 -90 0
8 64 74 0
9 64 104 0
3 64 113 0
2 64 118 0
9 65 -98 0
7 65 -95 0
3 65 -81 0
5 65 72 0
8 65 75 0
9 65 82 0
4 65 87 0
6 65 97 0
9 65 113 0
8 66 -113 0
6 66 -111 0
3 66 -94 0
2 66 -72 0
7 66 112 0
10 66 114 0
4 67 -113 0
5 67 -97 0
6 67 -96 0
6 67 -89 0
7 67 -68 0
5 67 70 0
5 67 116 0
9 67 118 0
4 67 119 0
6 68 74 0
9 68 76 0
6 68 85 0
4 68 100 0
8 68 115 0
8 69 -93 0
6 69 79 0
7 69 85 0
5 69 90 0
8 70 -113 0
2 70 -90 0
3 70 86 0
7 70 90 0
5 70 109 0
8 70 111 0
7 71 -114 0
3 71 -102 0
3 71 -99 0
9 71 -92 0
3 71 88 0
9 71 89 0
9 71 96 0
6 71 102 0
5 71 114 0
5 72 74 0
2 72 102 0
2 73 -98 0
9 73 -91 0
6 73 98 0
9 73 114 0
3 74 -107 0
2 74 -103 0
9 74 92 0
8 75 -91 0
5 75 101 0
7 75 103 0
6 75 112 0
1 76 94 0
4 76 104 0
1 76 111 0
8 76 117 0
5 77 -112 0
3 77 79 0
6 77 90 0
9 77 92 0
10 78 -114 0
3 78 -104 0
2 78 -99 0
3 78 -95 0
2 78 -84 0
4 78 -83 0
2 78 98 0
10 78 109 0
9 79 -92 0
6 79 -87 0
4 79 -86 0
10 79 83 0
7 79 97 0
3 80 -117 0
6 81 -105 0
6 81 -104 0
5 81 92 0
7 82 -116 0
5 82 -115 0
3 82 -97 0
2 82 88 0
1 82 97 0
8 82 104 0
3 83 -93 0
4 83 86 0
8 83 87 0
1 83 113 0
8 83 118 0
10 84 -117 0
6 84 -95 0
7 85 -106 0
10 85 -99 0
8 85 86 0
8 85 87 0
3 85 105 0
8 85 111 0
2 86 -116 0
4 86 -93 0
8 86 94 0
1 86 101 0
9 86 102 0
2 86 106 0
1 86 112 0
5 87 -116 0
4 87 -89 0
6 87 88 0
1 87 91 0
8 87 100 0
3 87 108 0
5 88 -110 0
10 88 92 0
5 88 94 0
5 88 108 0
8 88 109 0
6 88 112 0
9 89 -116 0
6 89 -113 0
6 89 -100 0
7 89 91 0
6 89 97 0
2 89 112 0
4 90 -113 0
5 90 -96 0
9 90 98 0
2 90 115 0
7 91 -103 0
7 91 94 0
3 91 110 0
10 92 -107 0
5 92 -104 0
4 92 109 0
9 93 94 0
7 93 104 0
4 93 112 0
4 94 -120 0
1 94 -96 0
9 94 100 0
4 95 -118 0
8 96 109 0
2 96 111 0
8 97 104 0
8 98 -112 0
6 98 -104 0
4 98 107 0
6 99 -119 0
2 99 -115 0
2 99 -107 0
2 99 102 0
8 99 109 0
8 100 -101 0
6 100 102 0
9 102 -120 0
2 102 -108 0
2 103 110 0
8 104 -120 0
3 104 106 0
7 104 112 0
5 106 114 0
5 107 -113 0
7 108 -120 0
9 108 -114 0
8 110 -116 0
6 110 115 0
6 112 -118 0
2 114 -120 0
9 114 -115 0
6 115 -120 0
10 118 -119 0
